(set-logic ALL)
(declare-fun var0 () String)
(assert (str.in_re var0 (re.++ (re.* (re.+ (str.to_re "000"))) (re.++ (re.union (re.* (str.to_re "1")) (re.* (str.to_re "22"))) (re.++ (re.+ (re.* (str.to_re "33"))) (re.++ (re.* (re.union (str.to_re "44") (str.to_re "55"))) (re.++ (re.union (re.union (str.to_re "6") (str.to_re "7")) (re.union (str.to_re "8") (str.to_re "9"))) (re.++ (re.union (re.union (str.to_re "aaa") (str.to_re "bb")) (re.union (str.to_re "c") (str.to_re "dd"))) (re.++ (re.union (re.union (str.to_re "e") (str.to_re "fff")) (re.union (str.to_re "g") (str.to_re "h"))) (re.++ (re.union (re.union (str.to_re "ii") (str.to_re "jjj")) (re.union (str.to_re "k") (str.to_re "lll"))) (re.++ (re.* (re.+ (str.to_re "mmm"))) (re.+ (re.+ (str.to_re "nn"))))))))))))))
(assert (<= 451 (str.len var0)))
(check-sat)